
Gurobi 12.0.2 (win64) logging started Mon Sep 15 14:20:47 2025

Set parameter LogFile to value "C:\Ioana\_uni\honours\slp\algorithm\Main_files\results\paracetamol with updated samples\Task_005_Sample001_irr_gurobi.log"
Gurobi Optimizer version 12.0.2 build v12.0.2rc0 (win64 - Windows 11.0 (26100.2))

CPU model: Intel(R) Core(TM) Ultra 5 125H, instruction set [SSE2|AVX|AVX2]
Thread count: 14 physical cores, 18 logical processors, using up to 18 threads

Non-default parameters:
TimeLimit  2200

Optimize a model with 47236 rows, 34517 columns and 146727 nonzeros
Model fingerprint: 0xe8fd6d18
Variable types: 17268 continuous, 17249 integer (17249 binary)
Coefficient statistics:
  Matrix range     [1e-04, 8e+04]
  Objective range  [1e-04, 9e-01]
  Bounds range     [1e+00, 1e+03]
  RHS range        [1e+00, 1e+00]
Presolve removed 30771 rows and 21543 columns
Presolve time: 0.30s
Presolved: 16465 rows, 12974 columns, 54814 nonzeros
Variable types: 6424 continuous, 6550 integer (6550 binary)
Found heuristic solution: objective 8.2372519

Root relaxation: objective 9.233951e-01, 3365 iterations, 0.28 seconds (0.66 work units)

    Nodes    |    Current Node    |     Objective Bounds      |     Work
 Expl Unexpl |  Obj  Depth IntInf | Incumbent    BestBd   Gap | It/Node Time

     0     0    0.92340    0    2    8.23725    0.92340  88.8%     -    0s
H    0     0                       1.8029685    0.92340  48.8%     -    0s
H    0     0                       0.9558614    0.92340  3.40%     -    0s
     0     0    0.92340    0    2    0.95586    0.92340  3.40%     -    0s

Explored 1 nodes (3365 simplex iterations) in 0.73 seconds (1.13 work units)
Thread count was 18 (of 18 available processors)

Solution count 3: 0.955861 1.80297 8.23725 

Optimal solution found (tolerance 1.00e-04)
Best objective 9.558613895271e-01, best bound 9.558613895271e-01, gap 0.0000%
